% File represents an instance of a Composite Structure problem to be solved by a CP framework
% Created on 2025-03-26 10:41:16.227
T = 50;
n = 9;
m = 12;
edges = [(2, 1),
(4, 5),
(7, 8),
(3, 2),
(6, 5),
(8, 9),
(4, 1),
(7, 4),
(2, 5),
(8, 5),
(3, 6),
(6, 9)];
counts = [|10, 14, 10, 4,
|12, 16, 12, 4,
|12, 18, 12, 4,
|12, 14, 12, 6,
|12, 12, 12, 4,
|12, 16, 12, 4,
|14, 16, 14, 6,
|12, 14, 12, 6,
|12, 14, 12, 4|];
